GLPSOL: GLPK LP/MIP Solver, v4.55
Parameter(s) specified in the command line:
 -m tmp.mod
Reading model section from tmp.mod...
Reading data section from tmp.mod...
5413 lines were read
Generating obj...
Generating kirhoff...
Generating init_charge...
Generating batt_size...
Model has been successfully generated
GLPK Simplex Optimizer, v4.55
6888 rows, 9904 columns, 21274 non-zeros
Preprocessing...
4924 rows, 9745 columns, 20929 non-zeros
Scaling...
 A: min|aij| =  1.000e+00  max|aij| =  1.000e+00  ratio =  1.000e+00
Problem data seem to be well scaled
Constructing initial basis...
Size of triangular part is 4175
      0: obj =   0.000000000e+00  infeas =  4.805e+03 (749)
    500: obj =   1.420000000e+02  infeas =  2.109e+03 (634)
   1000: obj =   2.635000000e+02  infeas =  1.488e+03 (552)
   1500: obj =   4.980000000e+02  infeas =  4.130e+02 (512)
*  1781: obj =   6.330000000e+02  infeas =  0.000e+00 (470)
*  2000: obj =   3.790000000e+02  infeas =  1.332e-15 (464)
*  2454: obj =   2.060000000e+02  infeas =  0.000e+00 (460)
OPTIMAL LP SOLUTION FOUND
Time used:   0.9 secs
Memory used: 19.6 Mb (20601363 bytes)
#OUTPUT:
206
-79 -72 0 -64 -32 0 -24 0 0 -16 -1 -5 -8 -8 0 -5 0 0 0 0 -8 0 0 -27 0 0 -8 0 0 -4 -5 0 -41 0 -27 0 -1 0 0 0 0 0 0 0 0 -8 -41 0 0 0 0 0 -32 0 -8 0 0 0 0 5 -1 0 -41 0 0 0 0 0 0 0 0 0 0 0 0 0 -1 -16 0 -4 0 0 0 -7 0 0 0 0 0 0 0 0 -1 0 0 0 0 0 0 0 0 -5 0 0 0 0 0 0 0 0 0 0 0 0 0 0 0 0 0 0 0 0 0 0 0 0 0 0 0 0 0 0 0 0 0 0 0 0 0 0 0 0 0 0 0 0 0 0 0 0 0 0 0 -27 0 0 0 0 0 0 0 0 0 0 0 0 0 0 0 0 0 0 0 0 0 0 0 0 0 0 0 0 0 0 1 0 0 0 0 0 0 0 0 0 0 0 0 0 0 0 0 0 0 0 1 0 0 0 0 0 0 0 0 0 0 0 0 0 0 0 0 0 0 0 0 0 0 0 0 0 0 0 0 0 0 0 0 0 0 0 0 0 0 0 0 0 0 0 0 0 0 0 0 -32 0 0 0 0 -1 0 0 0 0 0 0 0 -8 0 0 0 -27 0 0 0 0 0 0 0 0 0 0 0 0 0 0 0 0 0 0 0 0 0 0 -1 0 0 0 4 0 0 0 -5 -5 0 7 0 0 0 5 0 0 0 0 0 0 0 0 0 0 0 0 0 0 -1 0 0 0 0 0 0 -1 0 0 0 0 0 0 0 0 0 0 0 0 0 0 0 0 0 0 0 1 0 0 8 0 27 0 0 0 0 0 0 0 0 0 0 0 0 0 1 0 0 0 0 0 0 0 0 0 0 0 0 0 0 0 0 0 0 0 0 0 0 0 0 0 0 0 0 0 0 0 0 0 0 0 0 0 0 0 0 0 0 0 0 0 0 0 0 0 0 0 0 0 0 0 0 0 0 0 0 0 0 0 0 0 0 0 0 0 0 0 0 0 
-63 -54 0 -100 0 0 -24 -5 0 -22 -4 0 -24 -24 0 3 0 0 -16 0 0 -3 0 0 -13 -3 -26 28 0 -7 0 -1 -4 -1 0 0 -2 0 0 0 -1 -3 2 0 0 12 -4 0 2 0 0 -17 0 -14 0 0 -5 0 3 -8 0 -4 -4 0 0 0 0 -9 0 0 0 0 -3 0 0 -4 -2 -5 0 24 0 0 -1 0 -3 0 0 0 0 0 -23 0 0 -4 0 0 0 0 3 0 0 -8 0 0 0 0 0 0 0 0 0 0 1 0 0 0 0 0 0 0 0 0 0 0 0 0 0 5 0 0 -55 0 0 0 -16 0 3 0 0 0 1 0 0 0 0 0 0 0 -8 0 0 0 -3 0 0 0 0 1 -23 0 -2 0 0 0 0 0 0 0 0 0 0 0 0 -4 0 0 -1 2 0 0 0 0 0 0 0 0 0 0 0 -1 2 0 1 0 8 0 0 0 -2 -5 -27 0 2 0 1 0 -1 0 0 0 0 0 0 0 0 0 0 0 0 0 -10 -9 0 0 -49 0 0 0 0 0 0 0 0 0 0 0 0 0 -11 0 -10 0 0 0 0 0 0 0 0 0 0 0 -4 0 8 0 0 0 -2 0 0 0 0 0 0 0 0 -28 0 0 -22 0 0 0 0 0 -10 0 0 0 0 0 0 0 0 0 0 0 0 0 -3 0 0 0 0 0 0 4 -5 -2 0 0 0 0 0 8 0 0 8 0 17 0 3 0 -1 23 0 4 -2 0 1 -8 3 0 0 5 0 0 -2 0 -1 1 0 0 10 0 9 0 0 0 0 0 0 0 0 4 0 -8 0 0 2 0 0 0 28 22 0 0 0 0 -11 0 0 0 0 0 0 3 0 0 0 0 0 0 0 0 0 0 0 0 0 0 0 0 0 0 0 0 0 0 0 0 0 0 0 0 0 0 0 0 0 0 0 0 0 0 0 0 0 0 0 0 0 0 0 0 0 0 0 0 0 0 0 0 0 0 0 0 0 0 0 0 0 0 0 0 0 0 0 0 0 0 0 
-29 0 0 3 0 7 0 0 0 0 -34 0 0 0 7 0 6 0 -19 0 0 0 0 0 1 -20 0 -20 0 0 0 0 19 0 -4 0 0 0 0 0 0 -23 0 0 0 0 19 0 0 0 0 0 0 1 0 0 0 0 1 0 0 4 19 0 0 0 1 31 0 4 0 0 0 0 0 0 0 0 0 -17 0 0 0 0 0 0 0 0 0 -26 0 0 0 0 0 -3 0 0 -3 0 -20 1 0 0 0 0 0 0 -6 0 0 0 0 0 0 0 1 0 0 0 0 0 0 -1 0 0 0 0 0 0 0 0 0 0 0 0 0 0 0 0 -37 0 0 0 0 0 0 0 0 -1 0 0 3 0 0 0 0 0 0 0 0 2 0 0 0 0 0 0 0 0 0 0 -2 0 0 0 0 0 0 0 0 0 0 0 0 0 0 0 0 0 0 -1 0 0 0 0 0 0 0 0 0 0 0 0 1 0 0 0 0 0 0 0 0 0 0 0 0 0 0 0 1 0 0 0 0 0 0 0 0 0 0 0 0 0 0 0 0 0 -74 0 68 0 0 0 0 0 0 0 0 0 0 -4 1 0 0 0 0 0 0 0 0 0 0 0 0 0 0 26 0 0 0 0 0 0 0 0 68 0 0 0 0 0 0 0 0 0 0 0 0 0 0 0 0 0 0 0 0 0 5 0 0 0 0 -4 0 -1 0 -10 -1 0 0 0 -3 0 0 0 0 0 0 0 0 0 1 -1 0 0 -2 2 0 0 -1 0 0 0 -1 0 0 0 0 0 0 0 0 0 4 -1 0 0 0 0 0 1 -1 0 -26 0 0 0 0 6 -74 0 0 0 0 0 0 0 0 0 0 0 0 0 0 0 0 0 0 0 0 0 0 0 0 0 0 0 0 0 0 0 0 0 0 0 0 0 0 0 0 0 0 0 0 0 0 0 0 0 0 0 0 0 0 0 0 0 0 0 0 0 0 0 0 0 0 0 0 0 0 0 0 0 0 0 0 0 0 0 0 0 0 
-100 -92 2 -29 0 -6 -21 0 0 0 0 -2 -1 -1 -6 0 -6 0 3 0 0 -1 2 0 3 0 -1 25 0 -4 0 -3 -41 -5 2 0 0 0 0 0 0 0 0 -58 0 0 -41 0 0 0 0 0 0 3 0 0 0 0 0 0 -1 0 -41 0 0 0 0 53 0 3 0 0 0 0 0 3 0 0 0 21 -6 0 0 -21 0 0 0 0 0 3 0 0 -1 0 0 0 0 0 3 3 0 0 -58 0 0 0 0 0 -6 0 0 0 0 0 0 0 -3 0 0 0 0 0 0 0 0 0 0 1 0 0 -1 0 0 0 0 0 0 0 0 0 0 0 0 0 0 0 6 0 0 0 0 0 -3 0 0 2 -84 0 0 0 0 0 0 0 0 0 0 0 0 0 0 0 6 3 0 0 0 -2 0 0 0 0 0 0 1 0 0 0 0 0 0 0 1 0 0 0 0 0 0 0 0 0 0 0 1 0 0 0 0 0 0 0 0 0 0 0 0 0 0 0 0 1 0 0 0 0 0 0 0 0 0 0 0 0 0 2 0 0 -51 0 53 0 0 0 0 0 0 2 0 0 0 0 0 0 0 0 0 0 0 0 0 0 0 0 0 0 0 53 0 0 0 0 0 0 0 0 53 0 0 0 0 0 0 0 0 0 0 0 0 0 0 0 0 -1 0 0 0 4 -5 0 0 0 0 3 21 0 0 1 0 0 0 0 3 -2 0 0 -4 -3 0 0 0 0 0 0 -1 1 0 0 0 0 -1 0 0 0 0 0 -1 0 0 0 -2 0 0 -2 0 0 0 0 0 0 0 0 0 0 -53 0 0 0 -2 0 -51 0 0 0 0 0 0 0 0 1 0 0 0 0 0 0 0 0 0 0 0 0 0 0 0 0 0 0 0 0 0 0 0 0 0 0 0 0 0 0 0 0 0 0 0 0 0 0 0 0 0 0 0 0 0 0 0 0 0 0 0 0 0 0 0 0 0 0 0 0 0 0 0 0 0 0 0 0 0 0 0 0 0 
-97 -92 0 -51 0 -2 -21 0 0 0 0 0 -6 -6 -2 0 0 0 -82 0 -1 -4 0 0 -64 2 -6 -35 0 0 0 2 -9 0 -7 0 0 0 0 0 0 0 -2 0 0 -6 -9 0 0 0 0 0 0 -4 -1 0 -8 0 0 0 0 4 -9 0 0 -16 0 39 2 8 0 0 -3 0 -3 -16 0 0 -16 -35 0 0 1 -21 2 0 0 0 0 3 0 0 0 -9 1 0 0 0 3 6 0 -5 0 0 0 0 0 0 -3 0 0 0 0 0 0 0 -4 0 0 0 -2 0 0 0 0 0 -2 1 0 0 0 0 0 -2 0 0 0 -83 -2 0 -1 0 0 0 4 -3 4 0 0 0 0 0 -3 0 2 0 0 0 0 0 0 0 0 0 0 0 0 0 0 0 0 0 4 -16 0 3 0 2 0 0 0 0 0 0 0 0 0 0 0 0 0 0 0 0 0 0 0 0 0 0 0 0 0 0 0 0 1 0 0 0 0 0 0 0 0 -2 0 0 0 0 10 0 0 0 0 0 0 0 0 -3 0 0 0 0 0 -1 0 0 -25 0 40 0 0 0 0 0 0 2 0 0 0 -2 0 0 0 0 0 -1 0 0 0 0 0 0 0 0 0 35 0 0 -2 -1 0 0 0 0 40 0 0 0 0 0 0 0 0 -2 0 -4 0 0 0 0 0 0 0 0 0 0 -5 2 0 0 0 -4 -62 5 0 0 9 0 0 0 3 0 0 0 -4 -4 0 0 0 0 0 0 -1 1 0 0 0 0 0 -1 0 2 -10 0 0 0 0 3 1 0 0 -2 2 -4 0 0 0 1 0 0 0 0 -35 2 1 0 -15 0 -25 0 0 0 2 4 0 0 0 0 0 0 0 0 0 0 0 0 0 0 0 0 0 0 0 0 0 0 0 0 0 0 0 0 0 0 0 0 0 0 0 0 0 0 0 0 0 0 0 0 0 0 0 0 0 0 0 0 0 0 0 0 0 0 0 0 0 0 0 0 0 0 0 0 0 0 0 0 0 0 0 0 0 
-50 -12 0 -4 0 0 0 0 0 0 -34 0 0 0 0 0 0 0 -7 0 0 0 0 2 -6 -1 0 0 0 0 0 2 -5 0 0 0 0 0 0 0 0 -21 0 0 0 0 -5 0 0 0 0 0 0 0 0 0 -4 0 0 0 0 0 -5 0 0 0 0 0 0 2 0 0 0 0 0 0 0 0 0 0 0 0 -4 0 0 0 0 0 0 -21 0 0 0 0 0 0 0 0 0 2 0 0 0 -10 0 0 0 0 -6 0 0 0 -6 0 0 0 0 0 0 0 -4 0 0 0 0 0 0 0 0 0 0 -4 0 -4 0 0 0 0 0 0 -6 0 0 0 0 0 0 0 0 0 0 0 0 0 0 0 0 1 0 0 0 0 0 0 0 0 0 0 0 0 0 0 0 0 0 0 0 0 0 0 0 0 0 0 0 0 0 0 0 0 0 0 0 -4 0 0 0 0 0 0 0 0 0 0 1 0 6 0 0 0 0 0 0 0 0 0 0 0 0 0 0 0 0 0 0 0 -4 0 -2 0 0 0 0 0 0 0 0 0 -12 0 6 0 0 0 0 0 0 2 0 0 -10 0 0 0 0 2 0 0 0 0 0 0 0 0 0 0 0 0 0 0 0 0 0 0 0 0 6 -2 0 0 0 0 0 0 0 0 0 0 0 0 0 0 0 0 0 0 -4 0 -4 0 0 0 0 0 0 0 0 -12 0 0 0 0 0 0 -1 0 -2 0 0 0 0 0 0 -1 0 0 0 0 0 0 -1 -6 0 0 0 0 0 6 0 0 0 0 0 -2 0 0 0 0 0 0 0 0 0 0 0 0 0 0 0 6 -12 0 2 0 0 0 0 0 0 0 4 0 0 0 0 0 0 0 0 0 0 0 0 0 0 0 0 0 0 0 0 0 0 0 0 0 0 0 0 0 0 0 0 0 0 0 0 0 0 0 0 0 0 0 0 0 0 0 0 0 0 0 0 0 0 0 0 0 0 0 0 0 0 0 0 0 0 0 0 0 0 0 0 
-50 -43 0 -13 0 -2 -2 -4 0 0 -1 -6 -9 -9 -2 -4 -2 0 0 0 -8 0 0 0 0 0 0 -5 0 -4 0 0 -32 0 0 0 -2 0 0 0 0 0 0 0 0 0 -32 0 -9 0 0 0 0 0 0 0 0 0 0 0 0 0 0 0 0 0 0 0 0 0 0 0 0 0 -3 0 -2 0 0 0 0 0 0 0 0 0 0 0 0 0 3 0 0 0 0 -9 0 0 0 0 0 0 0 0 0 0 0 0 -6 0 0 0 0 0 0 0 0 0 0 0 0 0 0 0 0 0 0 0 0 0 0 0 0 0 0 0 -5 0 0 0 0 0 0 0 0 -3 0 0 -8 -9 0 0 0 0 -1 6 0 0 3 0 0 0 0 0 0 0 0 0 0 0 0 0 0 0 0 3 0 2 0 0 0 0 0 0 0 0 0 0 0 0 9 -9 0 0 8 0 0 0 1 0 0 0 9 0 1 0 0 0 0 0 0 0 0 0 0 0 0 0 0 0 0 -8 0 0 0 0 0 0 0 -3 0 0 0 0 0 -2 0 0 -5 0 0 0 0 0 0 0 0 0 0 0 0 0 0 0 0 0 0 0 -2 0 0 0 0 0 0 0 0 3 0 0 0 0 0 0 0 0 0 0 0 0 0 0 0 0 0 0 0 0 0 0 5 0 0 0 0 0 0 4 0 0 0 0 0 0 0 0 0 0 0 0 0 0 0 -6 0 -3 0 0 0 0 0 -8 0 -1 0 0 0 0 -9 0 -1 0 0 0 0 0 8 0 0 3 2 0 0 0 0 0 0 0 0 0 2 0 0 0 -3 0 0 0 2 3 -5 0 0 0 0 0 0 -5 0 0 0 0 0 0 0 0 0 0 0 0 0 0 0 0 0 0 0 0 0 0 0 0 0 0 0 0 0 0 0 0 0 0 0 0 0 0 0 0 0 0 0 0 0 0 0 0 0 0 0 0 0 0 0 0 0 0 0 0 0 0 0 0 0 0 0 0 0 0 0 0 0 0 0 
-100 -71 2 -67 -24 0 0 2 0 0 -34 0 -12 -12 0 -6 0 6 0 0 -8 -7 -4 -8 0 0 -12 0 0 0 0 0 6 2 -8 0 0 0 0 0 0 5 0 -54 0 -14 6 0 0 0 0 0 0 0 -1 0 0 0 -4 8 0 0 6 0 0 0 0 0 0 -8 0 0 -3 0 0 0 0 0 0 0 0 0 0 0 0 0 0 0 0 2 0 0 0 0 7 0 0 0 -3 -32 0 0 -54 0 0 0 0 0 -6 0 0 0 0 0 0 0 0 0 0 0 -52 0 0 0 0 0 0 0 0 0 6 0 0 5 4 0 0 0 0 0 0 0 0 0 0 0 0 0 -9 0 0 1 3 0 2 0 0 0 0 0 0 0 0 0 0 0 0 0 0 0 0 0 0 0 0 0 0 2 0 0 0 0 0 0 0 0 0 0 0 0 0 0 -18 0 8 0 0 0 -2 0 0 0 0 0 -1 0 0 0 0 0 0 0 0 0 0 0 0 -54 0 0 0 -6 0 0 0 0 5 0 -7 0 0 0 0 0 0 -1 -3 0 -7 0 0 0 0 0 0 0 0 -2 0 0 0 -24 0 0 2 5 0 -1 0 0 0 0 0 0 0 0 0 0 0 0 -27 -1 0 0 0 0 0 -2 0 0 0 0 0 0 0 0 0 0 0 0 0 -54 0 0 0 0 0 0 5 0 0 -6 0 4 0 0 0 42 0 0 -4 -1 -3 0 0 0 0 0 0 0 0 -8 -4 7 0 0 0 0 0 0 1 0 0 0 0 0 6 0 5 0 1 0 0 2 24 0 -4 2 -3 1 0 0 0 0 0 27 1 0 1 6 -7 0 2 0 0 0 0 0 -3 0 0 0 0 0 0 0 0 0 0 0 0 0 0 0 0 0 0 0 0 0 0 0 0 0 0 0 0 0 0 0 0 0 0 0 0 0 0 0 0 0 0 0 0 0 0 0 0 0 0 0 0 0 0 0 0 0 0 0 0 0 0 0 0 0 0 0 0 0 0 0 0 0 0 
-64 -25 -2 0 0 0 0 0 0 0 -34 0 0 0 0 -5 0 0 0 0 -8 0 -2 0 0 0 0 0 0 0 0 -2 -6 0 2 0 0 0 0 0 0 -35 0 0 0 0 -6 0 0 0 0 0 0 -3 0 0 0 0 0 5 0 0 -6 0 0 0 0 0 0 -1 0 0 -3 0 0 0 0 0 0 0 0 0 0 0 0 0 0 0 0 -38 0 0 0 0 0 0 0 0 -3 -1 0 0 0 0 0 0 0 0 -1 0 0 0 3 0 0 0 0 0 0 0 0 0 0 0 0 0 0 0 0 0 0 0 0 0 0 0 0 0 0 0 0 0 0 0 0 0 -17 0 0 0 0 0 3 0 0 0 0 0 0 0 0 0 0 0 0 0 0 0 0 0 0 0 -17 0 0 0 0 0 0 0 0 0 0 0 0 0 0 0 0 0 0 0 0 0 0 0 0 0 0 0 0 0 0 0 0 0 0 0 0 0 0 0 0 0 0 0 0 0 0 0 -3 0 0 0 0 0 0 0 0 0 0 0 0 0 0 0 0 0 -1 0 0 0 0 0 0 0 0 -2 0 0 0 0 0 0 -8 3 0 0 0 0 0 0 0 0 0 0 0 0 0 0 0 0 0 0 0 0 0 0 0 0 0 0 0 0 0 0 0 0 0 0 0 0 0 0 0 0 0 0 -5 0 0 0 0 3 0 0 0 1 0 0 0 0 -3 0 0 0 -4 0 0 0 0 0 0 0 0 0 0 0 0 0 0 0 0 0 3 0 0 3 0 0 0 0 0 2 0 0 3 5 -3 0 0 0 0 0 0 0 0 0 0 1 -1 0 0 0 0 0 0 0 0 0 0 0 0 0 0 0 0 0 0 0 0 0 0 0 0 0 0 0 0 0 0 0 0 0 0 0 0 0 0 0 0 0 0 0 0 0 0 0 0 0 0 0 0 0 0 0 0 0 0 0 0 0 0 0 0 0 0 0 0 0 0 0 0 0 0 0 0 0 0 0 0 0 0 
-41 -37 -1 -40 -2 0 -17 0 0 -17 -3 0 0 0 0 0 0 -1 0 0 -8 -7 0 -2 0 0 0 0 0 0 0 0 -41 0 0 0 0 0 0 0 0 -3 0 0 0 0 -41 0 0 0 0 0 0 0 -16 0 0 0 0 0 -1 0 -41 0 0 -6 0 0 0 0 0 0 3 0 0 0 0 -17 -6 0 0 0 0 0 0 0 0 0 0 0 0 0 -1 0 -1 0 0 0 3 0 0 0 0 0 0 0 0 0 -6 0 0 0 0 0 0 0 0 0 0 0 0 0 0 0 0 0 0 -2 0 0 0 0 0 0 0 0 0 0 0 0 0 0 0 0 0 0 0 0 8 0 0 0 -3 0 0 0 0 0 0 0 0 0 0 0 0 0 0 0 -70 0 0 0 0 0 0 0 0 0 0 0 0 0 0 0 1 0 0 0 0 0 0 0 0 0 0 0 0 0 0 12 -98 0 0 0 0 0 0 0 0 0 0 0 0 0 0 0 0 0 0 0 0 0 0 0 0 0 0 0 0 0 0 0 0 0 0 0 0 0 0 0 0 0 0 0 0 0 0 0 0 0 0 0 0 0 0 0 0 1 0 0 0 0 0 0 0 0 -17 0 0 0 5 0 0 0 0 0 0 0 0 0 0 0 0 0 -8 0 0 0 0 0 0 0 0 -1 0 0 0 0 0 0 0 0 0 0 0 0 0 0 0 0 0 0 3 0 0 0 0 0 0 0 0 0 0 0 -10 -2 0 0 0 0 0 0 0 0 0 0 0 0 0 0 0 0 0 0 0 0 0 0 0 -1 0 0 0 17 0 -5 0 0 -6 6 0 0 0 8 0 0 0 0 0 1 0 0 0 0 0 0 0 0 0 0 0 0 0 0 0 0 0 0 0 0 0 0 0 0 0 0 0 0 0 0 0 0 0 0 0 0 0 0 0 0 0 0 0 0 0 0 0 0 0 0 0 0 0 0 0 0 0 0 0 0 0 0 0 0 0 0 0 0 0 0 0 0 0 
#OUTPUT END
Model has been successfully processed
